samf/hales/sun/sec45.in
1.0e9
0.0

